$ Size of the grid (must be square)
letting n be 8

$ 0 = black, 1 = white, 2 = initially unknown
letting initial be
[
    [0, 2, 2, 2, 2, 2, 2, 2],
    [2, 2, 2, 2, 1, 2, 2, 2],
    [1, 2, 1, 2, 2, 2, 2, 1],
    [2, 2, 2, 2, 2, 2, 0, 2],
    [1, 2, 2, 2, 1, 2, 2, 2],
    [2, 2, 1, 1, 2, 2, 2, 2],
    [2, 2, 1, 2, 2, 2, 2, 0],
    [2, 1, 2, 2, 0, 2, 0, 1]
]
